benchmarks/bfuzz0/19269225401403821911196221885943325609.smt2
(set-logic QF_FP)
(declare-const x0 (_ FloatingPoint 8 24))
(declare-const x1 (_ FloatingPoint 8 24))
(assert (fp.leq (fp.add RNE (fp.mul RNE (fp.div RNE x1 x1) (fp.add RNE x0 x0)) (fp.add RNE (fp.mul RNE x1 x0) (fp.add RNE x0 x1))) (fp.mul RNE (fp.sub RNE (fp.div RNE x0 x0) (fp.neg x1)) (fp.sub RNE (fp.div RNE x1 x1) (fp.sub RNE x1 x0)))))
(check-sat)
