db/data/19269225401403821911196221885943325609.z3.out
sat
-------------------
9.893287060
